# Added pair interactions from input_polariser script
pair_coeff 1 1 lj/cut/coul/long 0.10493 3.750 # CO2
pair_coeff 1 2 lj/cut/coul/long 0.08319 3.62284 # CO2 
pair_coeff 1 3 lj/cut/coul/long 0.08567 3.64863 # CO2 
pair_coeff 1 4 lj/cut/coul/long 0.08319 3.62284 # CO2 
pair_coeff 1 5 lj/cut/coul/long 0.08567 3.64863 # CO2 
pair_coeff 1 6 lj/cut/coul/long 0.08319 3.62284 # CO2 
pair_coeff 1 7 lj/cut/coul/long 0.08319 3.62284 # CO2 
pair_coeff 1 8 lj/cut/coul/long 0.05609 3.06186 # CO2 
pair_coeff 1 9 lj/cut/coul/long 0.05609 3.01247 # CO2 
pair_coeff 1 10 lj/cut/coul/long 0.05609 3.06186 # CO2 
pair_coeff 1 11 lj/cut/coul/long 0.05609 3.01247 # CO2 
pair_coeff 1 12 lj/cut/coul/long 0.13352 3.49106 # CO2 
pair_coeff 1 13 lj/cut/coul/long 0.14839 3.33167 # CO2 
pair_coeff 2 2 lj/cut/coul/long 0.06595 3.500 # CTA
pair_coeff 2 3 lj/cut/coul/long 0.06792 3.52491 # CTA 
pair_coeff 2 4 lj/cut/coul/long 0.06595 3.50000 # CTA 
pair_coeff 2 5 lj/cut/coul/long 0.06792 3.52491 # CTA 
pair_coeff 2 6 lj/cut/coul/long 0.06595 3.50000 # CTA 
pair_coeff 2 7 lj/cut/coul/long 0.06595 3.50000 # CTA 
pair_coeff 2 8 lj/cut/coul/long 0.04447 2.95804 # CTA 
pair_coeff 2 9 lj/cut/coul/long 0.04447 2.91033 # CTA 
pair_coeff 2 10 lj/cut/coul/long 0.04447 2.95804 # CTA 
pair_coeff 2 11 lj/cut/coul/long 0.04447 2.91033 # CTA 
pair_coeff 2 12 lj/cut/coul/long 0.10585 3.37268 # CTA 
pair_coeff 2 13 lj/cut/coul/long 0.11764 3.21870 # CTA 
pair_coeff 3 3 lj/cut/coul/long 0.06995 3.550 # CR
pair_coeff 3 4 lj/cut/coul/long 0.06792 3.52491 # CR 
pair_coeff 3 5 lj/cut/coul/long 0.06995 3.55000 # CR 
pair_coeff 3 6 lj/cut/coul/long 0.06792 3.52491 # CR 
pair_coeff 3 7 lj/cut/coul/long 0.06792 3.52491 # CR 
pair_coeff 3 8 lj/cut/coul/long 0.04579 2.97909 # CR 
pair_coeff 3 9 lj/cut/coul/long 0.04579 2.93104 # CR 
pair_coeff 3 10 lj/cut/coul/long 0.04579 2.97909 # CR 
pair_coeff 3 11 lj/cut/coul/long 0.04579 2.93104 # CR 
pair_coeff 3 12 lj/cut/coul/long 0.10901 3.39669 # CR 
pair_coeff 3 13 lj/cut/coul/long 0.12116 3.24160 # CR 
pair_coeff 4 4 lj/cut/coul/long 0.06595 3.500 # C1
pair_coeff 4 5 lj/cut/coul/long 0.06792 3.52491 # C1 
pair_coeff 4 6 lj/cut/coul/long 0.06595 3.50000 # C1 
pair_coeff 4 7 lj/cut/coul/long 0.06595 3.50000 # C1 
pair_coeff 4 8 lj/cut/coul/long 0.04447 2.95804 # C1 
pair_coeff 4 9 lj/cut/coul/long 0.04447 2.91033 # C1 
pair_coeff 4 10 lj/cut/coul/long 0.04447 2.95804 # C1 
pair_coeff 4 11 lj/cut/coul/long 0.04447 2.91033 # C1 
pair_coeff 4 12 lj/cut/coul/long 0.10585 3.37268 # C1 
pair_coeff 4 13 lj/cut/coul/long 0.11764 3.21870 # C1 
pair_coeff 5 5 lj/cut/coul/long 0.06995 3.550 # CW
pair_coeff 5 6 lj/cut/coul/long 0.06792 3.52491 # CW 
pair_coeff 5 7 lj/cut/coul/long 0.06792 3.52491 # CW 
pair_coeff 5 8 lj/cut/coul/long 0.04579 2.97909 # CW 
pair_coeff 5 9 lj/cut/coul/long 0.04579 2.93104 # CW 
pair_coeff 5 10 lj/cut/coul/long 0.04579 2.97909 # CW 
pair_coeff 5 11 lj/cut/coul/long 0.04579 2.93104 # CW 
pair_coeff 5 12 lj/cut/coul/long 0.10901 3.39669 # CW 
pair_coeff 5 13 lj/cut/coul/long 0.12116 3.24160 # CW 
pair_coeff 6 6 lj/cut/coul/long 0.06595 3.500 # C1A
pair_coeff 6 7 lj/cut/coul/long 0.06595 3.50000 # C1A 
pair_coeff 6 8 lj/cut/coul/long 0.04447 2.95804 # C1A 
pair_coeff 6 9 lj/cut/coul/long 0.04447 2.91033 # C1A 
pair_coeff 6 10 lj/cut/coul/long 0.04447 2.95804 # C1A 
pair_coeff 6 11 lj/cut/coul/long 0.04447 2.91033 # C1A 
pair_coeff 6 12 lj/cut/coul/long 0.10585 3.37268 # C1A 
pair_coeff 6 13 lj/cut/coul/long 0.11764 3.21870 # C1A 
pair_coeff 7 7 lj/cut/coul/long 0.06595 3.500 # CE
pair_coeff 7 8 lj/cut/coul/long 0.04447 2.95804 # CE 
pair_coeff 7 9 lj/cut/coul/long 0.04447 2.91033 # CE 
pair_coeff 7 10 lj/cut/coul/long 0.04447 2.95804 # CE 
pair_coeff 7 11 lj/cut/coul/long 0.04447 2.91033 # CE 
pair_coeff 7 12 lj/cut/coul/long 0.10585 3.37268 # CE 
pair_coeff 7 13 lj/cut/coul/long 0.11764 3.21870 # CE 
pair_coeff 8 8 lj/cut/coul/long 0.02998 2.500 # HC
pair_coeff 8 9 lj/cut/coul/long 0.02998 2.45967 # HC 
pair_coeff 8 10 lj/cut/coul/long 0.02998 2.50000 # HC 
pair_coeff 8 11 lj/cut/coul/long 0.02998 2.45967 # HC 
pair_coeff 8 12 lj/cut/coul/long 0.07137 2.85044 # HC 
pair_coeff 8 13 lj/cut/coul/long 0.07932 2.72029 # HC 
pair_coeff 9 9 lj/cut/coul/long 0.02998 2.420 # HCR
pair_coeff 9 10 lj/cut/coul/long 0.02998 2.45967 # HCR 
pair_coeff 9 11 lj/cut/coul/long 0.02998 2.42000 # HCR 
pair_coeff 9 12 lj/cut/coul/long 0.07137 2.80446 # HCR 
pair_coeff 9 13 lj/cut/coul/long 0.07932 2.67642 # HCR 
pair_coeff 10 10 lj/cut/coul/long 0.02998 2.500 # H1
pair_coeff 10 11 lj/cut/coul/long 0.02998 2.45967 # H1 
pair_coeff 10 12 lj/cut/coul/long 0.07137 2.85044 # H1 
pair_coeff 10 13 lj/cut/coul/long 0.07932 2.72029 # H1 
pair_coeff 11 11 lj/cut/coul/long 0.02998 2.420 # HCW
pair_coeff 11 12 lj/cut/coul/long 0.07137 2.80446 # HCW 
pair_coeff 11 13 lj/cut/coul/long 0.07932 2.67642 # HCW 
pair_coeff 12 12 lj/cut/coul/long 0.16989 3.250 # NA
pair_coeff 12 13 lj/cut/coul/long 0.18882 3.10161 # NA 
pair_coeff 13 13 lj/cut/coul/long 0.20986 2.960 # O2
# interactions involving Drude particles
pair_coeff    *  14* coul/long/cs
# Thole damping if more than 1 Drude per molecule
pair_coeff    1    1 thole   1.432
pair_coeff    1    2 thole   1.686
pair_coeff    1    3 thole   1.438
pair_coeff    1    4 thole   1.543
pair_coeff    1    5 thole   1.438
pair_coeff    1    6 thole   1.686
pair_coeff    1    7 thole   1.686
pair_coeff    1   12 thole   1.315
pair_coeff    1   13 thole   1.280
pair_coeff    1   14 thole   1.432
pair_coeff    1   15 thole   1.686
pair_coeff    1   16 thole   1.438
pair_coeff    1   17 thole   1.543
pair_coeff    1   18 thole   1.438
pair_coeff    1   19 thole   1.686
pair_coeff    1   20 thole   1.686
pair_coeff    1   21 thole   1.315
pair_coeff    1   22 thole   1.280
pair_coeff    2    2 thole   1.985
pair_coeff    2    3 thole   1.694
pair_coeff    2    4 thole   1.816
pair_coeff    2    5 thole   1.694
pair_coeff    2    6 thole   1.985
pair_coeff    2    7 thole   1.985
pair_coeff    2   12 thole   1.549
pair_coeff    2   13 thole   1.507
pair_coeff    2   14 thole   1.686
pair_coeff    2   15 thole   1.985
pair_coeff    2   16 thole   1.694
pair_coeff    2   17 thole   1.816
pair_coeff    2   18 thole   1.694
pair_coeff    2   19 thole   1.985
pair_coeff    2   20 thole   1.985
pair_coeff    2   21 thole   1.549
pair_coeff    2   22 thole   1.507
pair_coeff    3    3 thole   1.445
pair_coeff    3    4 thole   1.550
pair_coeff    3    5 thole   1.445
pair_coeff    3    6 thole   1.694
pair_coeff    3    7 thole   1.694
pair_coeff    3   12 thole   1.321
pair_coeff    3   13 thole   1.286
pair_coeff    3   14 thole   1.438
pair_coeff    3   15 thole   1.694
pair_coeff    3   16 thole   1.445
pair_coeff    3   17 thole   1.550
pair_coeff    3   18 thole   1.445
pair_coeff    3   19 thole   1.694
pair_coeff    3   20 thole   1.694
pair_coeff    3   21 thole   1.321
pair_coeff    3   22 thole   1.286
pair_coeff    4    4 thole   1.662
pair_coeff    4    5 thole   1.550
pair_coeff    4    6 thole   1.816
pair_coeff    4    7 thole   1.816
pair_coeff    4   12 thole   1.417
pair_coeff    4   13 thole   1.379
pair_coeff    4   14 thole   1.543
pair_coeff    4   15 thole   1.816
pair_coeff    4   16 thole   1.550
pair_coeff    4   17 thole   1.662
pair_coeff    4   18 thole   1.550
pair_coeff    4   19 thole   1.816
pair_coeff    4   20 thole   1.816
pair_coeff    4   21 thole   1.417
pair_coeff    4   22 thole   1.379
pair_coeff    5    5 thole   1.445
pair_coeff    5    6 thole   1.694
pair_coeff    5    7 thole   1.694
pair_coeff    5   12 thole   1.321
pair_coeff    5   13 thole   1.286
pair_coeff    5   14 thole   1.438
pair_coeff    5   15 thole   1.694
pair_coeff    5   16 thole   1.445
pair_coeff    5   17 thole   1.550
pair_coeff    5   18 thole   1.445
pair_coeff    5   19 thole   1.694
pair_coeff    5   20 thole   1.694
pair_coeff    5   21 thole   1.321
pair_coeff    5   22 thole   1.286
pair_coeff    6    6 thole   1.985
pair_coeff    6    7 thole   1.985
pair_coeff    6   12 thole   1.549
pair_coeff    6   13 thole   1.507
pair_coeff    6   14 thole   1.686
pair_coeff    6   15 thole   1.985
pair_coeff    6   16 thole   1.694
pair_coeff    6   17 thole   1.816
pair_coeff    6   18 thole   1.694
pair_coeff    6   19 thole   1.985
pair_coeff    6   20 thole   1.985
pair_coeff    6   21 thole   1.549
pair_coeff    6   22 thole   1.507
pair_coeff    7    7 thole   1.985
pair_coeff    7   12 thole   1.549
pair_coeff    7   13 thole   1.507
pair_coeff    7   14 thole   1.686
pair_coeff    7   15 thole   1.985
pair_coeff    7   16 thole   1.694
pair_coeff    7   17 thole   1.816
pair_coeff    7   18 thole   1.694
pair_coeff    7   19 thole   1.985
pair_coeff    7   20 thole   1.985
pair_coeff    7   21 thole   1.549
pair_coeff    7   22 thole   1.507
pair_coeff   12   12 thole   1.208
pair_coeff   12   13 thole   1.176
pair_coeff   12   14 thole   1.315
pair_coeff   12   15 thole   1.549
pair_coeff   12   16 thole   1.321
pair_coeff   12   17 thole   1.417
pair_coeff   12   18 thole   1.321
pair_coeff   12   19 thole   1.549
pair_coeff   12   20 thole   1.549
pair_coeff   12   21 thole   1.208
pair_coeff   12   22 thole   1.176
pair_coeff   13   13 thole   1.144
pair_coeff   13   14 thole   1.280
pair_coeff   13   15 thole   1.507
pair_coeff   13   16 thole   1.286
pair_coeff   13   17 thole   1.379
pair_coeff   13   18 thole   1.286
pair_coeff   13   19 thole   1.507
pair_coeff   13   20 thole   1.507
pair_coeff   13   21 thole   1.176
pair_coeff   13   22 thole   1.144
pair_coeff   14   14 thole   1.432
pair_coeff   14   15 thole   1.686
pair_coeff   14   16 thole   1.438
pair_coeff   14   17 thole   1.543
pair_coeff   14   18 thole   1.438
pair_coeff   14   19 thole   1.686
pair_coeff   14   20 thole   1.686
pair_coeff   14   21 thole   1.315
pair_coeff   14   22 thole   1.280
pair_coeff   15   15 thole   1.985
pair_coeff   15   16 thole   1.694
pair_coeff   15   17 thole   1.816
pair_coeff   15   18 thole   1.694
pair_coeff   15   19 thole   1.985
pair_coeff   15   20 thole   1.985
pair_coeff   15   21 thole   1.549
pair_coeff   15   22 thole   1.507
pair_coeff   16   16 thole   1.445
pair_coeff   16   17 thole   1.550
pair_coeff   16   18 thole   1.445
pair_coeff   16   19 thole   1.694
pair_coeff   16   20 thole   1.694
pair_coeff   16   21 thole   1.321
pair_coeff   16   22 thole   1.286
pair_coeff   17   17 thole   1.662
pair_coeff   17   18 thole   1.550
pair_coeff   17   19 thole   1.816
pair_coeff   17   20 thole   1.816
pair_coeff   17   21 thole   1.417
pair_coeff   17   22 thole   1.379
pair_coeff   18   18 thole   1.445
pair_coeff   18   19 thole   1.694
pair_coeff   18   20 thole   1.694
pair_coeff   18   21 thole   1.321
pair_coeff   18   22 thole   1.286
pair_coeff   19   19 thole   1.985
pair_coeff   19   20 thole   1.985
pair_coeff   19   21 thole   1.549
pair_coeff   19   22 thole   1.507
pair_coeff   20   20 thole   1.985
pair_coeff   20   21 thole   1.549
pair_coeff   20   22 thole   1.507
pair_coeff   21   21 thole   1.208
pair_coeff   21   22 thole   1.176
pair_coeff   22   22 thole   1.144
