Processing anion-centred-cluster-0
/usr/local/vmd/1.9.4/lib/vmd_LINUXAMD64: /usr/local/mesa/default/lib/libGL.so.1: no version information available (required by /usr/local/vmd/1.9.4/lib/vmd_LINUXAMD64)
anion-centred-cluster-0.xyz   Charge:   0.0
# Commands to include in the LAMMPS input script

# adapt the pair_style command as needed
pair_style hybrid/overlay ... coul/long/cs 12.0 thole 2.600 12.0

# data file with Drude oscillators added
read_data anion-centred-cluster-0-pol.data

# pair interactions with Drude particles written to file
# Thole damping recommended if more than 1 Drude per molecule
include pair-drude.lmp

# atom groups convenient for thermostats (see package documentation), etc.
group ATOMS type 1 2 3 4 5 6 7 8 9 10 11 12 13
group CORES type 1 2 3 4 5 6 7 12 13
group DRUDES type 14 15 16 17 18 19 20 21 22

# flag for each atom type: [C]ore, [D]rude, [N]on-polarizable
fix DRUDE all drude C C C C C C C N N N N C C D D D D D D D D D

# ATTENTION!
#  * read_data may need 'extra/special/per/atom' keyword, LAMMPS will tell.
#  * If using fix shake the group-ID must not include Drude particles.
#    Use group ATOMS for example.
#  * Give all I<=J pair interactions, no mixing.
#  * Pair style coul/long/cs from CORESHELL package is used for interactions
#    of Drude particles. Alternatively pair lj/cut/thole/long could be used,
#    avoiding hybrid/overlay and allowing mixing. See doc pages.
Where do I start?
Checking for any potential hydrogen bonds..
None found
done
----
Processing anion-centred-cluster-1
/usr/local/vmd/1.9.4/lib/vmd_LINUXAMD64: /usr/local/mesa/default/lib/libGL.so.1: no version information available (required by /usr/local/vmd/1.9.4/lib/vmd_LINUXAMD64)
anion-centred-cluster-1.xyz   Charge:   0.0
# Commands to include in the LAMMPS input script

# adapt the pair_style command as needed
pair_style hybrid/overlay ... coul/long/cs 12.0 thole 2.600 12.0

# data file with Drude oscillators added
read_data anion-centred-cluster-1-pol.data

# pair interactions with Drude particles written to file
# Thole damping recommended if more than 1 Drude per molecule
include pair-drude.lmp

# atom groups convenient for thermostats (see package documentation), etc.
group ATOMS type 1 2 3 4 5 6 7 8 9 10 11 12 13
group CORES type 1 2 3 4 5 6 7 12 13
group DRUDES type 14 15 16 17 18 19 20 21 22

# flag for each atom type: [C]ore, [D]rude, [N]on-polarizable
fix DRUDE all drude C C C C C C C N N N N C C D D D D D D D D D

# ATTENTION!
#  * read_data may need 'extra/special/per/atom' keyword, LAMMPS will tell.
#  * If using fix shake the group-ID must not include Drude particles.
#    Use group ATOMS for example.
#  * Give all I<=J pair interactions, no mixing.
#  * Pair style coul/long/cs from CORESHELL package is used for interactions
#    of Drude particles. Alternatively pair lj/cut/thole/long could be used,
#    avoiding hybrid/overlay and allowing mixing. See doc pages.
Where do I start?
Checking for any potential hydrogen bonds..
None found
done
----
Processing anion-centred-cluster-2
/usr/local/vmd/1.9.4/lib/vmd_LINUXAMD64: /usr/local/mesa/default/lib/libGL.so.1: no version information available (required by /usr/local/vmd/1.9.4/lib/vmd_LINUXAMD64)
anion-centred-cluster-2.xyz   Charge:   0.0
# Commands to include in the LAMMPS input script

# adapt the pair_style command as needed
pair_style hybrid/overlay ... coul/long/cs 12.0 thole 2.600 12.0

# data file with Drude oscillators added
read_data anion-centred-cluster-2-pol.data

# pair interactions with Drude particles written to file
# Thole damping recommended if more than 1 Drude per molecule
include pair-drude.lmp

# atom groups convenient for thermostats (see package documentation), etc.
group ATOMS type 1 2 3 4 5 6 7 8 9 10 11 12 13
group CORES type 1 2 3 4 5 6 7 12 13
group DRUDES type 14 15 16 17 18 19 20 21 22

# flag for each atom type: [C]ore, [D]rude, [N]on-polarizable
fix DRUDE all drude C C C C C C C N N N N C C D D D D D D D D D

# ATTENTION!
#  * read_data may need 'extra/special/per/atom' keyword, LAMMPS will tell.
#  * If using fix shake the group-ID must not include Drude particles.
#    Use group ATOMS for example.
#  * Give all I<=J pair interactions, no mixing.
#  * Pair style coul/long/cs from CORESHELL package is used for interactions
#    of Drude particles. Alternatively pair lj/cut/thole/long could be used,
#    avoiding hybrid/overlay and allowing mixing. See doc pages.
Where do I start?
Checking for any potential hydrogen bonds..
None found
done
----
Processing anion-centred-cluster-3
/usr/local/vmd/1.9.4/lib/vmd_LINUXAMD64: /usr/local/mesa/default/lib/libGL.so.1: no version information available (required by /usr/local/vmd/1.9.4/lib/vmd_LINUXAMD64)
anion-centred-cluster-3.xyz   Charge:   0.0
# Commands to include in the LAMMPS input script

# adapt the pair_style command as needed
pair_style hybrid/overlay ... coul/long/cs 12.0 thole 2.600 12.0

# data file with Drude oscillators added
read_data anion-centred-cluster-3-pol.data

# pair interactions with Drude particles written to file
# Thole damping recommended if more than 1 Drude per molecule
include pair-drude.lmp

# atom groups convenient for thermostats (see package documentation), etc.
group ATOMS type 1 2 3 4 5 6 7 8 9 10 11 12 13
group CORES type 1 2 3 4 5 6 7 12 13
group DRUDES type 14 15 16 17 18 19 20 21 22

# flag for each atom type: [C]ore, [D]rude, [N]on-polarizable
fix DRUDE all drude C C C C C C C N N N N C C D D D D D D D D D

# ATTENTION!
#  * read_data may need 'extra/special/per/atom' keyword, LAMMPS will tell.
#  * If using fix shake the group-ID must not include Drude particles.
#    Use group ATOMS for example.
#  * Give all I<=J pair interactions, no mixing.
#  * Pair style coul/long/cs from CORESHELL package is used for interactions
#    of Drude particles. Alternatively pair lj/cut/thole/long could be used,
#    avoiding hybrid/overlay and allowing mixing. See doc pages.
Where do I start?
Checking for any potential hydrogen bonds..
None found
done
----
